Route #1: 1 1 16 10 15 1 
Route #2: 1 2 22 1 
Route #3: 1 4 11 21 1 
Route #4: 1 6 7 13 1 
Route #5: 1 8 19 1 
Route #6: 1 20 5 9 1 
Route #7: 1 12 18 1 
Route #8: 1 3 14 1 
Route #9: 1 17 1 

Cost 557.537
Time 0.1090


 * Another infos *

 Iterations: 23 Time: 0.1090 sec - 0.0018 min - 0.0000 horas
0.0000 h 0.0018 min
Problem dimension: 23
